14775
1703
13040
32

131 35 13 81 7 

16
156 112 89 147 6 183 94 95 117 97 98 37 92 
146 70 30 122 51 9 120 164 135 136 71 161 
53 105 26 149 195 109 12 138 28 157 50 111 
58 152 137 87 144 57 178 2 115 145 41 186 56 110 
40 180 21 73 72 74 171 22 133 75 197 
154 184 76 196 116 77 3 79 129 78 34 169 
166 60 18 153 106 194 182 62 159 63 90 10 148 
96 99 59 93 85 193 100 192 119 44 191 91 
104 151 172 42 142 14 141 16 61 173 84 5 83 199 52 
118 114 82 48 124 47 168 19 107 
88 189 108 126 11 175 123 36 143 49 64 181 32 
102 33 185 158 68 80 150 163 134 177 
198 179 130 165 55 25 170 39 187 139 4 54 24 29 
27 167 69 132 176 1 101 162 31 190 127 
155 67 23 15 43 38 140 86 113 17 45 46 8 
121 103 65 66 188 20 128 160 174 125 


